11 0 1 20 60 90 115 130 140 175 200 230 260
12 0 3 30 100 150 190
13 1 1 60 90 130 140 175 200 215 235 290 325
14 0 2 200 300 350 475
15 1 1 100 160 200 230 260 290 175 200 230 260
16 0 3 500 530 550 570